nN = 10;
nR = 40;
nH = 2;

a = [[17, 17, 16, 22, 24, 15, 19, 21, 19, 25, 25, 16, 18, 19, 21, 17, 15, 20, 20, 15, 20, 17, 23, 15, 16, 21, 25, 18, 23, 15, 22, 22, 15, 24, 25, 24, 21, 19, 23, 18], [21, 20, 19, 22, 20, 18, 20, 17, 15, 21, 16, 17, 15, 21, 25, 22, 24, 20, 22, 20, 16, 25, 22, 24, 25, 23, 15, 25, 21, 15, 16, 19, 18, 23, 22, 19, 16, 15, 19, 15], [25, 21, 23, 16, 16, 22, 18, 25, 23, 23, 23, 23, 21, 18, 19, 19, 19, 22, 22, 20, 16, 25, 19, 24, 18, 18, 18, 16, 23, 22, 25, 25, 22, 24, 16, 19, 25, 20, 15, 18], [18, 16, 21, 19, 25, 25, 24, 17, 18, 25, 20, 21, 22, 23, 20, 22, 25, 25, 19, 22, 23, 19, 17, 16, 16, 21, 25, 21, 23, 20, 20, 15, 18, 21, 21, 20, 17, 15, 24, 22], [19, 18, 21, 25, 25, 21, 23, 15, 16, 21, 18, 23, 21, 24, 23, 23, 20, 20, 23, 24, 15, 24, 20, 20, 19, 18, 17, 21, 24, 19, 19, 17, 24, 17, 23, 18, 25, 22, 17, 25], [25, 17, 18, 19, 25, 23, 23, 17, 17, 21, 24, 18, 19, 15, 16, 21, 24, 20, 15, 25, 22, 16, 17, 16, 24, 15, 19, 17, 25, 16, 25, 21, 20, 17, 25, 22, 15, 16, 20, 15], [22, 24, 22, 17, 21, 24, 15, 23, 23, 17, 16, 25, 16, 17, 23, 19, 17, 16, 25, 24, 22, 16, 18, 22, 17, 16, 22, 15, 17, 20, 25, 17, 23, 23, 18, 24, 15, 19, 25, 23], [16, 25, 22, 16, 25, 19, 20, 22, 16, 22, 23, 25, 22, 18, 23, 25, 20, 15, 19, 20, 20, 17, 20, 17, 21, 25, 16, 17, 17, 24, 18, 21, 15, 17, 18, 20, 15, 21, 19, 18], [22, 16, 23, 23, 17, 15, 20, 23, 20, 19, 22, 21, 20, 16, 21, 17, 19, 18, 15, 25, 25, 15, 17, 22, 23, 20, 21, 19, 20, 19, 17, 22, 25, 20, 18, 22, 16, 23, 16, 21], [25, 24, 24, 20, 18, 19, 16, 22, 25, 24, 19, 23, 23, 19, 15, 22, 20, 24, 17, 24, 20, 23, 25, 23, 18, 17, 20, 18, 16, 21, 21, 16, 20, 15, 25, 15, 25, 20, 17, 15]];
c = [[[0, 0, 0, 0, 0, 0, 0, 0, 0, 0, 0, 0, 0, 0, 0, 0, 0, 0, 0, 0, 0, 0, 0, 0, 0, 0, 0, 0, 0, 0, 0, 0, 0, 0, 0, 0, 0, 0, 0, 0], [50, 50, 31, 33, 41, 39, 47, 46, 30, 50, 37, 44, 47, 35, 40, 46, 45, 33, 31, 49, 38, 46, 47, 30, 47, 32, 48, 34, 34, 42, 41, 33, 46, 35, 30, 48, 45, 37, 45, 38], [34, 49, 40, 47, 44, 38, 41, 39, 44, 30, 50, 31, 49, 49, 37, 32, 37, 44, 43, 44, 43, 38, 49, 34, 33, 39, 39, 42, 38, 49, 44, 38, 32, 43, 44, 40, 40, 30, 36, 38], [34, 45, 49, 36, 34, 39, 31, 46, 49, 41, 46, 30, 30, 32, 32, 43, 30, 43, 46, 37, 47, 42, 34, 49, 45, 31, 43, 49, 35, 38, 46, 31, 32, 36, 49, 34, 33, 46, 49, 32], [37, 45, 34, 33, 40, 38, 46, 44, 30, 41, 30, 31, 44, 45, 43, 33, 50, 43, 42, 31, 33, 35, 34, 35, 35, 44, 39, 39, 37, 48, 33, 40, 42, 42, 35, 39, 50, 39, 45, 41], [46, 32, 40, 40, 38, 43, 33, 42, 42, 35, 37, 50, 38, 48, 48, 50, 43, 47, 34, 34, 37, 41, 39, 33, 44, 46, 47, 46, 49, 32, 44, 43, 42, 46, 42, 36, 48, 47, 45, 48], [39, 35, 38, 44, 32, 34, 32, 44, 38, 31, 40, 38, 46, 41, 42, 44, 50, 34, 31, 30, 50, 31, 45, 36, 50, 46, 50, 38, 49, 43, 40, 50, 43, 34, 50, 30, 30, 38, 35, 31], [36, 37, 40, 34, 45, 47, 30, 43, 41, 44, 48, 37, 44, 42, 37, 30, 34, 42, 33, 49, 42, 32, 45, 33, 48, 39, 48, 46, 46, 48, 31, 38, 35, 48, 40, 33, 39, 49, 49, 30], [33, 50, 38, 34, 47, 47, 41, 45, 49, 48, 32, 38, 30, 37, 30, 45, 39, 31, 37, 45, 46, 47, 34, 40, 44, 44, 33, 44, 45, 49, 43, 30, 41, 37, 45, 48, 37, 46, 49, 30], [50, 37, 41, 47, 46, 43, 30, 36, 31, 32, 34, 34, 43, 36, 30, 44, 31, 44, 39, 44, 46, 32, 39, 45, 48, 35, 37, 42, 47, 30, 34, 40, 35, 34, 43, 38, 42, 32, 36, 37]], [[0, 0, 0, 0, 0, 0, 0, 0, 0, 0, 0, 0, 0, 0, 0, 0, 0, 0, 0, 0, 0, 0, 0, 0, 0, 0, 0, 0, 0, 0, 0, 0, 0, 0, 0, 0, 0, 0, 0, 0], [0, 0, 0, 0, 0, 0, 0, 0, 0, 0, 0, 0, 0, 0, 0, 0, 0, 0, 0, 0, 0, 0, 0, 0, 0, 0, 0, 0, 0, 0, 0, 0, 0, 0, 0, 0, 0, 0, 0, 0], [46, 32, 49, 41, 46, 38, 40, 50, 32, 38, 41, 47, 35, 39, 34, 43, 30, 50, 40, 40, 36, 33, 36, 39, 39, 40, 49, 36, 42, 45, 43, 45, 42, 39, 44, 34, 50, 48, 35, 30], [48, 42, 31, 40, 32, 37, 44, 38, 34, 42, 45, 32, 37, 41, 44, 41, 46, 37, 48, 41, 50, 47, 31, 48, 43, 42, 44, 48, 49, 30, 40, 30, 38, 34, 47, 31, 32, 32, 34, 36], [45, 48, 30, 49, 47, 30, 30, 34, 42, 41, 39, 38, 35, 36, 39, 31, 35, 43, 47, 46, 36, 33, 50, 42, 35, 44, 43, 31, 37, 37, 35, 31, 47, 45, 39, 48, 35, 46, 36, 42], [41, 34, 35, 39, 41, 34, 40, 44, 44, 44, 30, 45, 31, 50, 48, 49, 40, 50, 38, 47, 49, 45, 35, 40, 42, 33, 37, 31, 50, 50, 31, 41, 37, 31, 44, 39, 45, 49, 34, 43], [43, 46, 34, 37, 35, 40, 48, 42, 34, 33, 32, 35, 43, 37, 49, 36, 43, 36, 42, 48, 47, 46, 31, 50, 32, 44, 41, 45, 40, 32, 47, 48, 34, 42, 39, 43, 39, 44, 47, 47], [45, 40, 45, 35, 32, 38, 34, 34, 50, 48, 30, 49, 30, 31, 50, 48, 35, 46, 35, 48, 46, 33, 32, 35, 48, 33, 47, 44, 44, 47, 32, 48, 40, 50, 37, 47, 33, 37, 49, 30], [44, 43, 37, 32, 44, 44, 40, 31, 39, 44, 44, 30, 38, 43, 30, 33, 49, 44, 47, 31, 34, 39, 33, 31, 44, 33, 34, 41, 33, 48, 44, 39, 45, 41, 39, 40, 33, 47, 30, 40], [32, 32, 43, 50, 44, 31, 31, 35, 37, 36, 47, 34, 50, 46, 35, 37, 38, 42, 45, 33, 49, 40, 37, 33, 45, 48, 34, 44, 49, 32, 40, 40, 45, 39, 45, 31, 47, 46, 50, 36]], [[0, 0, 0, 0, 0, 0, 0, 0, 0, 0, 0, 0, 0, 0, 0, 0, 0, 0, 0, 0, 0, 0, 0, 0, 0, 0, 0, 0, 0, 0, 0, 0, 0, 0, 0, 0, 0, 0, 0, 0], [0, 0, 0, 0, 0, 0, 0, 0, 0, 0, 0, 0, 0, 0, 0, 0, 0, 0, 0, 0, 0, 0, 0, 0, 0, 0, 0, 0, 0, 0, 0, 0, 0, 0, 0, 0, 0, 0, 0, 0], [0, 0, 0, 0, 0, 0, 0, 0, 0, 0, 0, 0, 0, 0, 0, 0, 0, 0, 0, 0, 0, 0, 0, 0, 0, 0, 0, 0, 0, 0, 0, 0, 0, 0, 0, 0, 0, 0, 0, 0], [33, 49, 40, 37, 32, 35, 48, 45, 38, 31, 49, 41, 31, 41, 42, 47, 30, 50, 48, 34, 33, 44, 44, 45, 42, 40, 47, 42, 39, 35, 50, 43, 33, 36, 48, 34, 35, 34, 42, 43], [33, 50, 39, 30, 36, 36, 32, 39, 30, 41, 34, 48, 37, 47, 41, 43, 41, 40, 44, 41, 49, 31, 49, 33, 47, 33, 45, 33, 42, 48, 30, 49, 37, 49, 47, 50, 41, 47, 33, 47], [48, 40, 41, 50, 38, 33, 38, 37, 37, 44, 34, 40, 38, 42, 32, 35, 32, 45, 32, 30, 47, 40, 35, 44, 36, 33, 35, 34, 41, 44, 40, 38, 44, 39, 34, 48, 47, 50, 34, 35], [33, 50, 31, 42, 38, 43, 39, 35, 50, 32, 34, 44, 33, 45, 34, 42, 35, 38, 42, 38, 31, 47, 31, 32, 43, 36, 35, 31, 44, 39, 35, 46, 46, 30, 39, 30, 48, 49, 31, 41], [36, 36, 41, 31, 32, 39, 35, 36, 31, 48, 41, 41, 49, 44, 31, 32, 33, 38, 44, 35, 30, 30, 45, 30, 39, 42, 30, 42, 38, 38, 32, 50, 38, 45, 49, 40, 35, 30, 31, 30], [36, 50, 45, 45, 37, 39, 49, 46, 34, 50, 46, 50, 50, 42, 45, 36, 48, 41, 47, 35, 34, 50, 36, 45, 43, 31, 40, 41, 44, 31, 41, 36, 36, 45, 46, 47, 36, 48, 30, 46], [39, 48, 48, 31, 41, 44, 32, 49, 39, 40, 46, 48, 33, 38, 50, 34, 48, 46, 31, 45, 48, 36, 47, 43, 49, 42, 36, 46, 32, 36, 47, 41, 50, 44, 30, 38, 46, 44, 43, 43]], [[0, 0, 0, 0, 0, 0, 0, 0, 0, 0, 0, 0, 0, 0, 0, 0, 0, 0, 0, 0, 0, 0, 0, 0, 0, 0, 0, 0, 0, 0, 0, 0, 0, 0, 0, 0, 0, 0, 0, 0], [0, 0, 0, 0, 0, 0, 0, 0, 0, 0, 0, 0, 0, 0, 0, 0, 0, 0, 0, 0, 0, 0, 0, 0, 0, 0, 0, 0, 0, 0, 0, 0, 0, 0, 0, 0, 0, 0, 0, 0], [0, 0, 0, 0, 0, 0, 0, 0, 0, 0, 0, 0, 0, 0, 0, 0, 0, 0, 0, 0, 0, 0, 0, 0, 0, 0, 0, 0, 0, 0, 0, 0, 0, 0, 0, 0, 0, 0, 0, 0], [0, 0, 0, 0, 0, 0, 0, 0, 0, 0, 0, 0, 0, 0, 0, 0, 0, 0, 0, 0, 0, 0, 0, 0, 0, 0, 0, 0, 0, 0, 0, 0, 0, 0, 0, 0, 0, 0, 0, 0], [47, 46, 35, 39, 39, 36, 39, 37, 49, 48, 45, 43, 50, 33, 48, 30, 47, 30, 39, 39, 34, 32, 43, 41, 47, 46, 34, 32, 36, 45, 31, 46, 49, 34, 36, 35, 35, 31, 41, 46], [39, 39, 47, 38, 37, 37, 37, 34, 48, 30, 32, 44, 46, 46, 39, 34, 42, 43, 43, 46, 40, 49, 30, 50, 33, 30, 45, 42, 50, 44, 50, 31, 40, 41, 42, 39, 45, 37, 41, 36], [32, 31, 30, 42, 49, 42, 41, 38, 45, 35, 30, 45, 34, 47, 39, 36, 39, 40, 38, 32, 40, 40, 30, 41, 41, 46, 46, 36, 39, 48, 44, 50, 50, 45, 48, 35, 31, 46, 40, 41], [41, 32, 41, 35, 46, 50, 50, 38, 49, 40, 45, 30, 36, 34, 48, 46, 32, 35, 43, 47, 48, 32, 36, 38, 41, 48, 40, 46, 42, 30, 48, 38, 35, 38, 34, 49, 35, 45, 30, 45], [40, 45, 50, 30, 49, 50, 43, 34, 49, 49, 46, 30, 35, 50, 36, 32, 46, 30, 31, 48, 47, 40, 37, 33, 45, 39, 39, 49, 39, 46, 39, 31, 33, 45, 42, 30, 30, 36, 46, 31], [37, 48, 36, 34, 46, 49, 49, 36, 47, 45, 38, 43, 31, 33, 39, 32, 42, 47, 41, 40, 37, 44, 48, 43, 50, 45, 41, 30, 47, 42, 46, 34, 50, 33, 45, 42, 43, 48, 47, 33]], [[0, 0, 0, 0, 0, 0, 0, 0, 0, 0, 0, 0, 0, 0, 0, 0, 0, 0, 0, 0, 0, 0, 0, 0, 0, 0, 0, 0, 0, 0, 0, 0, 0, 0, 0, 0, 0, 0, 0, 0], [0, 0, 0, 0, 0, 0, 0, 0, 0, 0, 0, 0, 0, 0, 0, 0, 0, 0, 0, 0, 0, 0, 0, 0, 0, 0, 0, 0, 0, 0, 0, 0, 0, 0, 0, 0, 0, 0, 0, 0], [0, 0, 0, 0, 0, 0, 0, 0, 0, 0, 0, 0, 0, 0, 0, 0, 0, 0, 0, 0, 0, 0, 0, 0, 0, 0, 0, 0, 0, 0, 0, 0, 0, 0, 0, 0, 0, 0, 0, 0], [0, 0, 0, 0, 0, 0, 0, 0, 0, 0, 0, 0, 0, 0, 0, 0, 0, 0, 0, 0, 0, 0, 0, 0, 0, 0, 0, 0, 0, 0, 0, 0, 0, 0, 0, 0, 0, 0, 0, 0], [0, 0, 0, 0, 0, 0, 0, 0, 0, 0, 0, 0, 0, 0, 0, 0, 0, 0, 0, 0, 0, 0, 0, 0, 0, 0, 0, 0, 0, 0, 0, 0, 0, 0, 0, 0, 0, 0, 0, 0], [30, 31, 31, 38, 41, 32, 48, 37, 34, 37, 37, 45, 46, 31, 48, 35, 47, 46, 41, 50, 40, 41, 49, 37, 37, 38, 33, 44, 44, 34, 31, 45, 39, 31, 37, 45, 30, 49, 34, 42], [36, 30, 33, 31, 34, 47, 38, 43, 42, 41, 41, 37, 48, 49, 35, 33, 39, 38, 42, 36, 44, 41, 49, 30, 37, 35, 42, 42, 46, 36, 46, 40, 47, 50, 48, 33, 44, 36, 38, 30], [33, 38, 44, 44, 44, 43, 33, 41, 49, 35, 37, 49, 42, 41, 38, 31, 41, 30, 48, 31, 48, 30, 31, 38, 44, 39, 41, 34, 35, 39, 32, 43, 41, 34, 40, 33, 34, 49, 36, 41], [44, 47, 36, 38, 44, 33, 37, 35, 36, 45, 34, 45, 40, 32, 38, 42, 30, 50, 30, 42, 48, 34, 45, 41, 39, 36, 33, 32, 33, 45, 31, 45, 37, 40, 41, 31, 41, 47, 30, 37], [49, 38, 45, 31, 41, 35, 50, 34, 36, 48, 39, 42, 48, 35, 34, 47, 50, 46, 37, 47, 31, 46, 31, 48, 43, 43, 41, 31, 33, 37, 32, 47, 41, 48, 39, 48, 37, 32, 44, 34]], [[0, 0, 0, 0, 0, 0, 0, 0, 0, 0, 0, 0, 0, 0, 0, 0, 0, 0, 0, 0, 0, 0, 0, 0, 0, 0, 0, 0, 0, 0, 0, 0, 0, 0, 0, 0, 0, 0, 0, 0], [0, 0, 0, 0, 0, 0, 0, 0, 0, 0, 0, 0, 0, 0, 0, 0, 0, 0, 0, 0, 0, 0, 0, 0, 0, 0, 0, 0, 0, 0, 0, 0, 0, 0, 0, 0, 0, 0, 0, 0], [0, 0, 0, 0, 0, 0, 0, 0, 0, 0, 0, 0, 0, 0, 0, 0, 0, 0, 0, 0, 0, 0, 0, 0, 0, 0, 0, 0, 0, 0, 0, 0, 0, 0, 0, 0, 0, 0, 0, 0], [0, 0, 0, 0, 0, 0, 0, 0, 0, 0, 0, 0, 0, 0, 0, 0, 0, 0, 0, 0, 0, 0, 0, 0, 0, 0, 0, 0, 0, 0, 0, 0, 0, 0, 0, 0, 0, 0, 0, 0], [0, 0, 0, 0, 0, 0, 0, 0, 0, 0, 0, 0, 0, 0, 0, 0, 0, 0, 0, 0, 0, 0, 0, 0, 0, 0, 0, 0, 0, 0, 0, 0, 0, 0, 0, 0, 0, 0, 0, 0], [0, 0, 0, 0, 0, 0, 0, 0, 0, 0, 0, 0, 0, 0, 0, 0, 0, 0, 0, 0, 0, 0, 0, 0, 0, 0, 0, 0, 0, 0, 0, 0, 0, 0, 0, 0, 0, 0, 0, 0], [35, 47, 41, 49, 30, 31, 44, 30, 50, 49, 47, 33, 41, 39, 43, 45, 31, 40, 48, 39, 41, 47, 32, 37, 43, 31, 30, 36, 42, 34, 49, 33, 42, 44, 45, 49, 40, 47, 41, 47], [34, 46, 39, 49, 36, 43, 49, 37, 49, 45, 43, 50, 41, 41, 50, 47, 40, 37, 34, 36, 40, 39, 40, 30, 40, 47, 46, 40, 36, 41, 46, 37, 46, 42, 45, 47, 44, 33, 47, 48], [33, 39, 40, 45, 48, 45, 42, 33, 37, 40, 30, 36, 35, 37, 41, 30, 48, 47, 42, 35, 38, 41, 41, 50, 49, 36, 35, 42, 42, 32, 48, 46, 34, 45, 34, 42, 45, 40, 48, 50], [34, 45, 42, 48, 33, 34, 30, 48, 31, 43, 33, 31, 34, 49, 46, 34, 42, 30, 41, 45, 47, 48, 44, 43, 39, 43, 31, 32, 42, 33, 34, 40, 49, 35, 41, 30, 38, 50, 32, 49]], [[0, 0, 0, 0, 0, 0, 0, 0, 0, 0, 0, 0, 0, 0, 0, 0, 0, 0, 0, 0, 0, 0, 0, 0, 0, 0, 0, 0, 0, 0, 0, 0, 0, 0, 0, 0, 0, 0, 0, 0], [0, 0, 0, 0, 0, 0, 0, 0, 0, 0, 0, 0, 0, 0, 0, 0, 0, 0, 0, 0, 0, 0, 0, 0, 0, 0, 0, 0, 0, 0, 0, 0, 0, 0, 0, 0, 0, 0, 0, 0], [0, 0, 0, 0, 0, 0, 0, 0, 0, 0, 0, 0, 0, 0, 0, 0, 0, 0, 0, 0, 0, 0, 0, 0, 0, 0, 0, 0, 0, 0, 0, 0, 0, 0, 0, 0, 0, 0, 0, 0], [0, 0, 0, 0, 0, 0, 0, 0, 0, 0, 0, 0, 0, 0, 0, 0, 0, 0, 0, 0, 0, 0, 0, 0, 0, 0, 0, 0, 0, 0, 0, 0, 0, 0, 0, 0, 0, 0, 0, 0], [0, 0, 0, 0, 0, 0, 0, 0, 0, 0, 0, 0, 0, 0, 0, 0, 0, 0, 0, 0, 0, 0, 0, 0, 0, 0, 0, 0, 0, 0, 0, 0, 0, 0, 0, 0, 0, 0, 0, 0], [0, 0, 0, 0, 0, 0, 0, 0, 0, 0, 0, 0, 0, 0, 0, 0, 0, 0, 0, 0, 0, 0, 0, 0, 0, 0, 0, 0, 0, 0, 0, 0, 0, 0, 0, 0, 0, 0, 0, 0], [0, 0, 0, 0, 0, 0, 0, 0, 0, 0, 0, 0, 0, 0, 0, 0, 0, 0, 0, 0, 0, 0, 0, 0, 0, 0, 0, 0, 0, 0, 0, 0, 0, 0, 0, 0, 0, 0, 0, 0], [48, 36, 39, 50, 40, 48, 48, 30, 40, 46, 44, 44, 34, 44, 35, 45, 44, 39, 45, 35, 44, 48, 32, 34, 33, 41, 49, 34, 49, 42, 41, 31, 34, 49, 38, 50, 38, 40, 36, 33], [48, 33, 31, 36, 39, 45, 46, 48, 34, 50, 36, 44, 38, 45, 39, 49, 32, 42, 31, 38, 43, 31, 30, 33, 38, 41, 47, 40, 31, 44, 47, 37, 44, 39, 33, 43, 38, 32, 40, 37], [31, 43, 31, 33, 30, 32, 32, 46, 47, 48, 35, 35, 40, 38, 39, 36, 31, 42, 31, 44, 46, 34, 36, 48, 36, 45, 32, 30, 44, 45, 44, 47, 37, 35, 48, 31, 38, 47, 45, 44]], [[0, 0, 0, 0, 0, 0, 0, 0, 0, 0, 0, 0, 0, 0, 0, 0, 0, 0, 0, 0, 0, 0, 0, 0, 0, 0, 0, 0, 0, 0, 0, 0, 0, 0, 0, 0, 0, 0, 0, 0], [0, 0, 0, 0, 0, 0, 0, 0, 0, 0, 0, 0, 0, 0, 0, 0, 0, 0, 0, 0, 0, 0, 0, 0, 0, 0, 0, 0, 0, 0, 0, 0, 0, 0, 0, 0, 0, 0, 0, 0], [0, 0, 0, 0, 0, 0, 0, 0, 0, 0, 0, 0, 0, 0, 0, 0, 0, 0, 0, 0, 0, 0, 0, 0, 0, 0, 0, 0, 0, 0, 0, 0, 0, 0, 0, 0, 0, 0, 0, 0], [0, 0, 0, 0, 0, 0, 0, 0, 0, 0, 0, 0, 0, 0, 0, 0, 0, 0, 0, 0, 0, 0, 0, 0, 0, 0, 0, 0, 0, 0, 0, 0, 0, 0, 0, 0, 0, 0, 0, 0], [0, 0, 0, 0, 0, 0, 0, 0, 0, 0, 0, 0, 0, 0, 0, 0, 0, 0, 0, 0, 0, 0, 0, 0, 0, 0, 0, 0, 0, 0, 0, 0, 0, 0, 0, 0, 0, 0, 0, 0], [0, 0, 0, 0, 0, 0, 0, 0, 0, 0, 0, 0, 0, 0, 0, 0, 0, 0, 0, 0, 0, 0, 0, 0, 0, 0, 0, 0, 0, 0, 0, 0, 0, 0, 0, 0, 0, 0, 0, 0], [0, 0, 0, 0, 0, 0, 0, 0, 0, 0, 0, 0, 0, 0, 0, 0, 0, 0, 0, 0, 0, 0, 0, 0, 0, 0, 0, 0, 0, 0, 0, 0, 0, 0, 0, 0, 0, 0, 0, 0], [0, 0, 0, 0, 0, 0, 0, 0, 0, 0, 0, 0, 0, 0, 0, 0, 0, 0, 0, 0, 0, 0, 0, 0, 0, 0, 0, 0, 0, 0, 0, 0, 0, 0, 0, 0, 0, 0, 0, 0], [40, 34, 41, 31, 39, 35, 31, 44, 48, 44, 33, 46, 32, 32, 34, 32, 50, 39, 36, 38, 43, 34, 33, 36, 38, 48, 49, 43, 45, 44, 30, 31, 43, 32, 41, 49, 32, 37, 41, 42], [31, 41, 42, 32, 36, 35, 39, 45, 42, 45, 38, 49, 48, 42, 30, 31, 47, 39, 35, 47, 50, 45, 42, 32, 46, 48, 45, 40, 38, 41, 50, 32, 39, 45, 30, 46, 49, 38, 30, 39]], [[0, 0, 0, 0, 0, 0, 0, 0, 0, 0, 0, 0, 0, 0, 0, 0, 0, 0, 0, 0, 0, 0, 0, 0, 0, 0, 0, 0, 0, 0, 0, 0, 0, 0, 0, 0, 0, 0, 0, 0], [0, 0, 0, 0, 0, 0, 0, 0, 0, 0, 0, 0, 0, 0, 0, 0, 0, 0, 0, 0, 0, 0, 0, 0, 0, 0, 0, 0, 0, 0, 0, 0, 0, 0, 0, 0, 0, 0, 0, 0], [0, 0, 0, 0, 0, 0, 0, 0, 0, 0, 0, 0, 0, 0, 0, 0, 0, 0, 0, 0, 0, 0, 0, 0, 0, 0, 0, 0, 0, 0, 0, 0, 0, 0, 0, 0, 0, 0, 0, 0], [0, 0, 0, 0, 0, 0, 0, 0, 0, 0, 0, 0, 0, 0, 0, 0, 0, 0, 0, 0, 0, 0, 0, 0, 0, 0, 0, 0, 0, 0, 0, 0, 0, 0, 0, 0, 0, 0, 0, 0], [0, 0, 0, 0, 0, 0, 0, 0, 0, 0, 0, 0, 0, 0, 0, 0, 0, 0, 0, 0, 0, 0, 0, 0, 0, 0, 0, 0, 0, 0, 0, 0, 0, 0, 0, 0, 0, 0, 0, 0], [0, 0, 0, 0, 0, 0, 0, 0, 0, 0, 0, 0, 0, 0, 0, 0, 0, 0, 0, 0, 0, 0, 0, 0, 0, 0, 0, 0, 0, 0, 0, 0, 0, 0, 0, 0, 0, 0, 0, 0], [0, 0, 0, 0, 0, 0, 0, 0, 0, 0, 0, 0, 0, 0, 0, 0, 0, 0, 0, 0, 0, 0, 0, 0, 0, 0, 0, 0, 0, 0, 0, 0, 0, 0, 0, 0, 0, 0, 0, 0], [0, 0, 0, 0, 0, 0, 0, 0, 0, 0, 0, 0, 0, 0, 0, 0, 0, 0, 0, 0, 0, 0, 0, 0, 0, 0, 0, 0, 0, 0, 0, 0, 0, 0, 0, 0, 0, 0, 0, 0], [0, 0, 0, 0, 0, 0, 0, 0, 0, 0, 0, 0, 0, 0, 0, 0, 0, 0, 0, 0, 0, 0, 0, 0, 0, 0, 0, 0, 0, 0, 0, 0, 0, 0, 0, 0, 0, 0, 0, 0], [32, 45, 34, 49, 32, 38, 46, 43, 49, 39, 36, 44, 30, 49, 30, 32, 31, 42, 49, 37, 43, 38, 38, 34, 46, 35, 37, 38, 40, 42, 41, 47, 35, 38, 33, 47, 34, 33, 35, 39]], [[0, 0, 0, 0, 0, 0, 0, 0, 0, 0, 0, 0, 0, 0, 0, 0, 0, 0, 0, 0, 0, 0, 0, 0, 0, 0, 0, 0, 0, 0, 0, 0, 0, 0, 0, 0, 0, 0, 0, 0], [0, 0, 0, 0, 0, 0, 0, 0, 0, 0, 0, 0, 0, 0, 0, 0, 0, 0, 0, 0, 0, 0, 0, 0, 0, 0, 0, 0, 0, 0, 0, 0, 0, 0, 0, 0, 0, 0, 0, 0], [0, 0, 0, 0, 0, 0, 0, 0, 0, 0, 0, 0, 0, 0, 0, 0, 0, 0, 0, 0, 0, 0, 0, 0, 0, 0, 0, 0, 0, 0, 0, 0, 0, 0, 0, 0, 0, 0, 0, 0], [0, 0, 0, 0, 0, 0, 0, 0, 0, 0, 0, 0, 0, 0, 0, 0, 0, 0, 0, 0, 0, 0, 0, 0, 0, 0, 0, 0, 0, 0, 0, 0, 0, 0, 0, 0, 0, 0, 0, 0], [0, 0, 0, 0, 0, 0, 0, 0, 0, 0, 0, 0, 0, 0, 0, 0, 0, 0, 0, 0, 0, 0, 0, 0, 0, 0, 0, 0, 0, 0, 0, 0, 0, 0, 0, 0, 0, 0, 0, 0], [0, 0, 0, 0, 0, 0, 0, 0, 0, 0, 0, 0, 0, 0, 0, 0, 0, 0, 0, 0, 0, 0, 0, 0, 0, 0, 0, 0, 0, 0, 0, 0, 0, 0, 0, 0, 0, 0, 0, 0], [0, 0, 0, 0, 0, 0, 0, 0, 0, 0, 0, 0, 0, 0, 0, 0, 0, 0, 0, 0, 0, 0, 0, 0, 0, 0, 0, 0, 0, 0, 0, 0, 0, 0, 0, 0, 0, 0, 0, 0], [0, 0, 0, 0, 0, 0, 0, 0, 0, 0, 0, 0, 0, 0, 0, 0, 0, 0, 0, 0, 0, 0, 0, 0, 0, 0, 0, 0, 0, 0, 0, 0, 0, 0, 0, 0, 0, 0, 0, 0], [0, 0, 0, 0, 0, 0, 0, 0, 0, 0, 0, 0, 0, 0, 0, 0, 0, 0, 0, 0, 0, 0, 0, 0, 0, 0, 0, 0, 0, 0, 0, 0, 0, 0, 0, 0, 0, 0, 0, 0], [0, 0, 0, 0, 0, 0, 0, 0, 0, 0, 0, 0, 0, 0, 0, 0, 0, 0, 0, 0, 0, 0, 0, 0, 0, 0, 0, 0, 0, 0, 0, 0, 0, 0, 0, 0, 0, 0, 0, 0]]];

q = [[[18, 113], [9, 107], [22, 114], [18, 105], [13, 109], [10, 119], [13, 120], [15, 112], [7, 107], [13, 109], [13, 110], [13, 120], [23, 111], [7, 106], [13, 118], [8, 124], [18, 125], [10, 115], [6, 106], [19, 117], [13, 105], [19, 114], [20, 108], [17, 118], [24, 105], [15, 123], [16, 110], [23, 123], [17, 120], [13, 107], [18, 114], [9, 109], [17, 108], [17, 123], [5, 120], [5, 120], [16, 115], [16, 122], [9, 117], [17, 124]], [[10, 111], [10, 106], [15, 120], [12, 109], [15, 107], [20, 120], [10, 107], [8, 121], [5, 105], [12, 114], [13, 112], [5, 107], [21, 114], [18, 109], [12, 115], [12, 123], [16, 125], [5, 107], [10, 120], [13, 106], [13, 108], [9, 110], [15, 118], [14, 124], [21, 105], [19, 105], [5, 115], [23, 125], [11, 105], [9, 108], [21, 113], [20, 107], [23, 112], [9, 115], [8, 108], [22, 121], [13, 123], [17, 114], [19, 105], [7, 106]], [[25, 121], [19, 110], [16, 115], [18, 118], [15, 107], [12, 124], [5, 111], [17, 118], [9, 123], [18, 111], [23, 116], [7, 123], [22, 117], [9, 119], [13, 107], [7, 112], [20, 117], [13, 115], [25, 121], [13, 121], [16, 112], [25, 118], [6, 122], [12, 116], [10, 107], [25, 122], [14, 109], [23, 117], [16, 115], [6, 123], [22, 119], [12, 113], [17, 125], [7, 111], [15, 115], [10, 107], [25, 108], [5, 113], [20, 124], [25, 124]], [[5, 111], [5, 114], [19, 124], [23, 121], [22, 122], [18, 124], [12, 105], [12, 116], [16, 125], [16, 108], [9, 106], [19, 122], [13, 117], [11, 125], [21, 110], [10, 106], [12, 124], [19, 113], [10, 109], [17, 123], [18, 107], [8, 121], [17, 110], [5, 111], [13, 124], [21, 113], [24, 105], [9, 125], [15, 111], [11, 114], [10, 111], [21, 119], [5, 122], [14, 124], [21, 120], [8, 117], [9, 109], [7, 115], [13, 109], [11, 125]], [[22, 105], [24, 119], [17, 117], [12, 112], [14, 118], [10, 115], [19, 109], [11, 115], [23, 106], [24, 119], [12, 116], [18, 121], [8, 109], [18, 123], [20, 108], [24, 125], [18, 122], [14, 106], [23, 110], [24, 110], [13, 118], [15, 108], [5, 116], [25, 112], [11, 112], [9, 115], [13, 125], [20, 115], [5, 119], [17, 125], [15, 123], [12, 117], [22, 112], [12, 122], [8, 113], [6, 123], [7, 117], [17, 115], [18, 112], [17, 106]], [[5, 119], [9, 116], [11, 107], [10, 114], [18, 123], [7, 109], [25, 106], [24, 117], [6, 121], [15, 107], [21, 112], [6, 113], [9, 116], [9, 123], [25, 106], [20, 107], [5, 109], [25, 113], [21, 123], [24, 123], [18, 124], [21, 110], [19, 112], [12, 120], [21, 114], [11, 110], [22, 115], [10, 107], [22, 121], [23, 122], [7, 125], [10, 122], [13, 111], [5, 115], [22, 112], [15, 120], [17, 105], [8, 118], [6, 125], [19, 117]], [[10, 111], [18, 118], [23, 125], [7, 110], [14, 123], [16, 112], [5, 121], [25, 108], [5, 105], [16, 108], [21, 114], [17, 109], [5, 121], [12, 105], [24, 119], [21, 110], [19, 118], [23, 114], [15, 106], [15, 109], [8, 121], [21, 124], [16, 121], [17, 106], [16, 115], [9, 109], [17, 108], [25, 116], [11, 107], [20, 116], [24, 119], [25, 122], [6, 119], [20, 111], [19, 119], [12, 121], [19, 120], [9, 111], [25, 113], [5, 113]], [[10, 122], [13, 117], [16, 116], [21, 118], [17, 123], [22, 108], [8, 110], [23, 111], [10, 113], [9, 106], [21, 107], [18, 105], [12, 110], [6, 121], [6, 114], [24, 107], [13, 123], [19, 112], [18, 106], [9, 106], [11, 111], [13, 110], [8, 119], [20, 122], [24, 124], [8, 118], [12, 112], [10, 117], [24, 124], [6, 118], [25, 106], [11, 107], [21, 123], [21, 106], [10, 122], [10, 117], [16, 115], [15, 111], [24, 118], [15, 123]], [[21, 113], [17, 114], [6, 123], [12, 116], [22, 124], [11, 106], [12, 115], [6, 116], [7, 118], [14, 114], [19, 112], [9, 106], [7, 112], [18, 108], [18, 112], [9, 121], [25, 112], [13, 110], [20, 122], [22, 120], [21, 106], [5, 113], [17, 121], [16, 108], [12, 116], [13, 106], [18, 117], [18, 121], [5, 105], [6, 125], [24, 121], [25, 123], [9, 122], [17, 114], [13, 122], [22, 122], [23, 124], [23, 123], [8, 106], [15, 113]], [[25, 105], [19, 119], [10, 105], [15, 122], [22, 122], [17, 124], [24, 118], [7, 125], [12, 121], [24, 108], [6, 108], [18, 115], [22, 107], [22, 118], [10, 118], [19, 116], [15, 109], [9, 121], [10, 124], [18, 122], [5, 124], [24, 124], [22, 112], [17, 110], [9, 118], [20, 110], [7, 117], [14, 107], [21, 111], [5, 125], [22, 118], [24, 106], [7, 123], [20, 121], [16, 108], [17, 105], [7, 108], [9, 110], [7, 115], [14, 114]]];
Q = [[45, 366], [43, 361], [49, 372], [43, 371], [49, 369], [47, 369], [50, 367], [47, 367], [47, 370], [48, 370]];
